000 000 000 000 000 000 000 000 -99 -99 -99 -99 -99 000 000 -99 000 -99 000 000 000 -99 -99 000 000 000 -99 -99 -99 -99 000
000 000 000 000 000 000 000 000 000 -99 -99 -99 -99 000 000 000 -99 -99 -99 000 000 -99 000 -99 000 000 -99 -99 -99 -99 -99
-99 000 000 000 000 000 000 000 000 000 -99 -99 -99 -99 000 000 -99 -99 -99 -99 000 -99 000 000 000 000 000 -99 -99 -99 -99
-99 000 000 000 000 000 000 -99 000 000 000 -99 000 -99 -99 000 -99 -99 -99 -99 000 -99 000 000 000 000 000 -99 -99 000 -99
000 000 000 000 000 000 000 000 000 000 000 -99 000 000 -99 -99 -99 -99 -99 -99 000 000 000 000 000 000 000 -99 -99 -99 -99
000 000 000 000 000 000 000 000 000 000 -99 -99 000 000 000 -99 -99 -99 -99 -99 000 000 000 000 000 000 000 -99 -99 -99 -99
000 000 000 000 000 -99 000 000 000 000 -99 -99 000 000 000 000 000 -99 -99 -99 000 000 000 000 000 000 -99 -99 -99 -99 -99
000 000 000 000 000 -99 -99 000 000 000 000 -99 -99 -99 000 000 000 000 000 -99 -99 000 000 000 000 000 -99 -99 -99 000 000
000 000 000 000 000 000 -99 000 000 000 000 000 -99 -99 000 000 -99 000 000 -99 000 -99 000 -99 000 000 -99 -99 -99 000 000
000 000 000 000 000 -99 -99 -99 -99 000 000 000 000 -99 -99 -99 -99 000 000 -99 000 000 -99 -99 -99 000 000 -99 000 000 000
000 000 000 000 000 -99 000 000 000 000 000 000 000 000 -99 -99 -99 000 000 -99 000 000 -99 -99 -99 -99 -99 -99 000 000 000
000 000 000 000 000 -99 000 000 000 000 000 000 -99 000 -99 -99 -99 -99 000 000 000 000 -99 -99 -99 -99 -99 -99 000 000 000
000 000 000 000 000 000 000 000 000 000 000 000 -99 -99 -99 000 000 -99 000 000 -99 000 -99 -99 000 -99 -99 -99 000 000 000
000 -99 000 000 000 000 000 000 000 000 -99 000 000 -99 -99 000 000 -99 000 000 -99 -99 -99 000 000 000 000 000 -99 -99 -99
000 -99 -99 000 000 000 000 000 000 000 -99 000 000 000 -99 000 000 000 000 000 -99 000 -99 000 000 000 000 000 000 000 -99
000 -99 -99 000 000 000 000 000 000 000 -99 -99 000 000 -99 000 000 000 000 000 -99 000 -99 -99 000 000 000 000 000 000 -99
-99 -99 -99 -99 -99 000 000 000 000 -99 -99 -99 000 000 000 000 000 000 000 000 -99 000 000 000 000 000 000 000 -99 000 000
000 000 -99 -99 -99 -99 000 000 000 000 -99 -99 -99 000 000 000 000 000 000 -99 -99 -99 000 -99 -99 -99 000 -99 -99 000 000
000 000 000 -99 -99 -99 -99 -99 000 000 -99 -99 -99 000 000 000 000 000 000 -99 -99 000 000 -99 -99 -99 -99 -99 -99 000 000
000 000 000 000 -99 -99 -99 -99 000 000 -99 -99 000 000 000 -99 000 000 000 000 -99 000 000 -99 -99 -99 -99 -99 -99 000 000
000 000 000 000 000 000 -99 -99 000 000 -99 -99 000 000 -99 -99 000 000 000 000 000 000 000 -99 -99 -99 -99 -99 -99 -99 -99
000 000 000 000 000 000 -99 000 000 000 -99 -99 000 000 -99 -99 000 -99 000 000 000 000 000 -99 -99 -99 -99 -99 -99 -99 -99
000 000 000 000 000 -99 -99 000 000 000 -99 -99 000 000 000 000 000 000 000 000 000 000 000 -99 -99 -99 -99 -99 -99 -99 -99
000 000 000 000 -99 000 000 000 000 000 -99 -99 000 000 -99 -99 000 000 000 000 000 000 000 -99 -99 -99 -99 -99 -99 -99 -99
000 000 000 000 000 000 000 000 000 000 -99 -99 000 000 000 000 000 000 000 000 000 000 000 -99 -99 -99 -99 -99 -99 -99 -99
-99 000 000 000 000 000 000 000 000 000 -99 -99 000 000 000 000 000 000 000 000 000 000 -99 -99 -99 -99 -99 -99 -99 -99 -99
000 000 000 000 000 000 000 000 000 000 000 -99 000 000 000 000 000 000 000 000 000 000 -99 -99 -99 -99 -99 -99 -99 -99 -99
000 000 000 000 000 000 000 000 000 000 -99 -99 -99 -99 000 000 000 000 000 000 000 000 -99 -99 -99 -99 -99 -99 -99 -99 000
000 000 000 000 000 000 000 000 000 000 000 -99 -99 -99 000 000 000 -99 000 000 000 000 -99 -99 -99 -99 -99 -99 -99 -99 000
000 000 000 000 000 000 000 000 000 000 000 -99 -99 000 000 000 -99 000 000 000 000 000 -99 -99 -99 -99 -99 -99 -99 -99 000
000 000 000 000 000 000 000 000 000 000 000 -99 -99 000 000 000 -99 000 000 000 000 000 -99 -99 -99 -99 -99 -99 -99 -99 000
000 000 000 000 000 000 000 000 000 000 000 -99 -99 000 000 -99 -99 000 000 -99 -99 000 -99 -99 000 -99 -99 -99 -99 -99 000
000 000 000 000 000 -99 000 000 000 000 000 -99 -99 -99 000 -99 000 000 000 -99 -99 -99 -99 -99 000 -99 -99 -99 -99 -99 000
000 000 000 000 000 -99 000 000 000 000 -99 -99 -99 000 000 000 000 000 -99 -99 000 000 -99 000 000 000 -99 000 000 -99 000
000 000 000 000 000 -99 000 000 000 000 000 -99 000 000 000 000 000 000 -99 000 000 -99 -99 000 000 000 000 000 000 -99 000
000 000 000 000 000 000 000 000 000 000 000 -99 000 000 000 000 000 000 -99 000 000 -99 -99 000 000 000 000 000 000 000 -99
000 000 000 000 000 000 000 000 000 000 000 -99 000 000 000 000 000 -99 -99 000 000 -99 000 000 000 000 000 000 000 -99 -99
001 000 000 000 000 000 000 000 000 000 -99 000 000 000 000 000 000 -99 -99 000 000 -99 000 000 000 000 000 000 000 -99 -99
001 000 000 000 -99 000 000 000 000 000 -99 000 000 000 000 000 000 -99 -99 000 000 -99 000 000 000 000 000 000 -99 -99 -99
000 000 000 000 000 -99 000 000 -99 -99 -99 000 000 000 000 000 000 -99 -99 000 000 -99 000 000 -99 000 000 000 000 -99 000
000 000 000 000 000 000 -99 000 -99 000 000 000 000 000 000 000 000 -99 000 000 000 -99 -99 -99 -99 000 000 000 000 -99 -99
000 000 -99 -99 000 000 000 000 000 000 000 000 000 000 000 000 000 000 000 000 -99 -99 -99 -99 000 000 001 002 -99 000 -99
000 000 -99 -99 000 000 -99 -99 000 000 000 000 000 000 000 000 000 000 000 000 -99 -99 -99 -99 000 000 001 002 -99 -99 -99
000 -99 -99 -99 -99 000 000 -99 -99 000 -99 000 000 000 000 000 000 000 000 -99 -99 -99 -99 -99 000 000 000 000 000 -99 -99
000 -99 -99 -99 000 -99 -99 -99 -99 -99 -99 000 000 000 000 000 000 000 000 -99 000 -99 -99 000 000 000 000 000 000 -99 -99
000 -99 -99 -99 -99 -99 -99 -99 -99 -99 000 000 000 000 000 -99 000 000 000 -99 000 -99 -99 000 -99 -99 000 000 -99 -99 -99
000 -99 -99 -99 -99 -99 -99 -99 -99 000 000 000 000 -99 -99 -99 -99 -99 -99 -99 -99 000 000 000 -99 -99 000 -99 -99 -99 -99
-99 -99 -99 -99 -99 -99 -99 -99 -99 000 -99 -99 000 -99 -99 -99 -99 -99 -99 -99 -99 000 000 -99 -99 -99 000 000 000 -99 -99
-99 -99 -99 -99 -99 -99 -99 -99 -99 000 -99 -99 -99 -99 -99 -99 -99 -99 -99 -99 000 000 000 -99 -99 -99 000 000 000 -99 000
-99 -99 -99 -99 -99 -99 -99 -99 -99 -99 000 000 -99 -99 -99 -99 000 000 -99 -99 000 000 -99 -99 -99 -99 -99 000 000 000 000
-99 -99 -99 -99 -99 -99 -99 -99 000 -99 000 000 -99 -99 -99 -99 000 000 -99 -99 000 000 -99 -99 -99 -99 000 000 000 000 001
-99 -99 -99 -99 -99 -99 -99 -99 -99 -99 -99 -99 -99 -99 -99 -99 -99 000 000 000 000 -99 -99 -99 -99 -99 -99 000 000 000 002
-99 -99 -99 -99 -99 -99 -99 -99 -99 -99 -99 -99 -99 -99 -99 -99 001 000 000 000 000 -99 -99 -99 -99 -99 000 000 000 000 001
-99 -99 -99 -99 -99 -99 -99 -99 -99 -99 -99 -99 -99 -99 -99 -99 001 000 000 -99 -99 -99 -99 -99 -99 000 000 000 000 000 001
-99 -99 -99 -99 -99 -99 -99 -99 -99 -99 -99 -99 007 -99 -99 002 002 000 -99 -99 -99 -99 -99 -99 -99 000 000 000 000 001 002
